solution status: optimal solution found
objective value:                     178312.138749646
d11(0,0)                                            1 	(obj:0)
d11(1,1)                                            1 	(obj:0)
d11(1,2)                                            1 	(obj:0)
d11(2,4)                                            1 	(obj:0)
d11(2,5)                                            1 	(obj:0)
d11(2,6)                                            1 	(obj:0)
d11(2,7)                                            1 	(obj:0)
d11(2,8)                                            1 	(obj:0)
d11(2,9)                                            1 	(obj:0)
d11(2,10)                                           1 	(obj:0)
d11(2,11)                                           1 	(obj:0)
d11(2,12)                                           1 	(obj:0)
d11(3,13)                                           1 	(obj:0)
d11(3,14)                                           1 	(obj:0)
d11(3,16)                                           1 	(obj:0)
d11(3,19)                                           1 	(obj:0)
d11(3,22)                                           1 	(obj:0)
d11(3,23)                                           1 	(obj:0)
d11(3,25)                                           1 	(obj:0)
d11(3,26)                                           1 	(obj:0)
d11(3,28)                                           1 	(obj:0)
d11(3,31)                                           1 	(obj:0)
d11(3,32)                                           1 	(obj:0)
d11(3,34)                                           1 	(obj:0)
d11(3,35)                                           1 	(obj:0)
d11(3,37)                                           1 	(obj:0)
d11(4,40)                                           1 	(obj:0)
d11(4,41)                                           1 	(obj:0)
d11(4,43)                                           1 	(obj:0)
d11(4,44)                                           1 	(obj:0)
d11(4,46)                                           1 	(obj:0)
d11(4,47)                                           1 	(obj:0)
d11(4,49)                                           1 	(obj:0)
d11(4,50)                                           1 	(obj:0)
d11(4,52)                                           1 	(obj:0)
d11(4,53)                                           1 	(obj:0)
d11(4,55)                                           1 	(obj:0)
d11(4,56)                                           1 	(obj:0)
d11(4,58)                                           1 	(obj:0)
d11(4,59)                                           1 	(obj:0)
d11(4,61)                                           1 	(obj:0)
d11(4,62)                                           1 	(obj:0)
d11(4,64)                                           1 	(obj:0)
d11(4,65)                                           1 	(obj:0)
d11(4,67)                                           1 	(obj:0)
d11(4,68)                                           1 	(obj:0)
d11(4,70)                                           1 	(obj:0)
d11(4,71)                                           1 	(obj:0)
d11(4,73)                                           1 	(obj:0)
d11(4,74)                                           1 	(obj:0)
d11(4,76)                                           1 	(obj:0)
d11(4,77)                                           1 	(obj:0)
d11(4,79)                                           1 	(obj:0)
d11(4,80)                                           1 	(obj:0)
d11(4,82)                                           1 	(obj:0)
d11(4,83)                                           1 	(obj:0)
d11(4,85)                                           1 	(obj:0)
d11(4,86)                                           1 	(obj:0)
d11(4,88)                                           1 	(obj:0)
d11(4,89)                                           1 	(obj:0)
d11(4,91)                                           1 	(obj:0)
d11(4,92)                                           1 	(obj:0)
d11(4,94)                                           1 	(obj:0)
d11(4,95)                                           1 	(obj:0)
d11(4,97)                                           1 	(obj:0)
d11(4,98)                                           1 	(obj:0)
d11(4,100)                                          1 	(obj:0)
d11(4,101)                                          1 	(obj:0)
d11(4,103)                                          1 	(obj:0)
d11(4,104)                                          1 	(obj:0)
d11(4,106)                                          1 	(obj:0)
d11(4,107)                                          1 	(obj:0)
d11(4,109)                                          1 	(obj:0)
d11(4,110)                                          1 	(obj:0)
d11(4,112)                                          1 	(obj:0)
d11(4,113)                                          1 	(obj:0)
d11(4,115)                                          1 	(obj:0)
d11(4,116)                                          1 	(obj:0)
d11(4,118)                                          1 	(obj:0)
d11(4,119)                                          1 	(obj:0)
d12(3,15)                                           1 	(obj:0)
d12(3,18)                                           1 	(obj:0)
d12(3,21)                                           1 	(obj:0)
d12(3,24)                                           1 	(obj:0)
d12(3,27)                                           1 	(obj:0)
d12(3,30)                                           1 	(obj:0)
d12(3,33)                                           1 	(obj:0)
d12(3,36)                                           1 	(obj:0)
d12(3,39)                                           1 	(obj:0)
d12(4,54)                                           1 	(obj:0)
d12(4,66)                                           1 	(obj:0)
d12(4,120)                                          1 	(obj:0)
d21(3,13)                                           1 	(obj:0)
d21(4,40)                                           1 	(obj:0)
d21(4,41)                                           1 	(obj:0)
d21(4,42)                                           1 	(obj:0)
d21(4,43)                                           1 	(obj:0)
d21(4,44)                                           1 	(obj:0)
d21(4,45)                                           1 	(obj:0)
d21(4,46)                                           1 	(obj:0)
d21(4,47)                                           1 	(obj:0)
d21(4,49)                                           1 	(obj:0)
d21(4,50)                                           1 	(obj:0)
d21(4,51)                                           1 	(obj:0)
d21(4,52)                                           1 	(obj:0)
d21(4,53)                                           1 	(obj:0)
d21(4,55)                                           1 	(obj:0)
d21(4,58)                                           1 	(obj:0)
d21(4,59)                                           1 	(obj:0)
d21(4,61)                                           1 	(obj:0)
d21(4,67)                                           1 	(obj:0)
d21(4,68)                                           1 	(obj:0)
d21(4,69)                                           1 	(obj:0)
d21(4,70)                                           1 	(obj:0)
d21(4,71)                                           1 	(obj:0)
d21(4,73)                                           1 	(obj:0)
d21(4,76)                                           1 	(obj:0)
d21(4,77)                                           1 	(obj:0)
d21(4,79)                                           1 	(obj:0)
d21(4,85)                                           1 	(obj:0)
d21(4,94)                                           1 	(obj:0)
d21(4,95)                                           1 	(obj:0)
d21(4,97)                                           1 	(obj:0)
d21(4,103)                                          1 	(obj:0)
STE(1,1)                             9377.78179333332 	(obj:0)
STE(0,0)                                        12600 	(obj:0)
STE(1,2)                             10374.5477966666 	(obj:0)
STE(1,3)                                        11592 	(obj:0)
STE(2,4)                             4912.14029608466 	(obj:0)
STE(2,5)                             5908.90629941795 	(obj:0)
STE(2,6)                             7126.35850275133 	(obj:0)
STE(2,7)                             5908.90629941795 	(obj:0)
STE(2,8)                             6905.67230275124 	(obj:0)
STE(2,9)                             8123.12450608462 	(obj:0)
STE(2,10)                            7126.35850275134 	(obj:0)
STE(2,11)                            8123.12450608463 	(obj:0)
STE(2,12)                            9340.57670941801 	(obj:0)
STE(3,13)                            2907.37429275131 	(obj:0)
STE(3,14)                             3904.1402960846 	(obj:0)
STE(3,15)                            4816.70362993464 	(obj:0)
STE(3,16)                             3904.1402960846 	(obj:0)
STE(3,17)                            4900.90629941795 	(obj:0)
STE(3,18)                            5813.46963326794 	(obj:0)
STE(3,19)                            5121.59249941798 	(obj:0)
STE(3,20)                            6118.35850275133 	(obj:0)
STE(3,21)                            7030.92183660131 	(obj:0)
STE(3,22)                             3904.1402960846 	(obj:0)
STE(3,23)                            4900.90629941789 	(obj:0)
STE(3,24)                            5813.46963326794 	(obj:0)
STE(3,25)                            4900.90629941789 	(obj:0)
STE(3,26)                            5897.67230275124 	(obj:0)
STE(3,27)                            6810.23563660122 	(obj:0)
STE(3,28)                            6118.35850275127 	(obj:0)
STE(3,29)                            7115.12450608462 	(obj:0)
STE(3,30)                             8027.6878399346 	(obj:0)
STE(3,31)                            5121.59249941799 	(obj:0)
STE(3,32)                            6118.35850275134 	(obj:0)
STE(3,33)                            7030.92183660133 	(obj:0)
STE(3,34)                            6118.35850275128 	(obj:0)
STE(3,35)                            7115.12450608463 	(obj:0)
STE(3,36)                            8027.68783993462 	(obj:0)
STE(3,37)                            7335.81070608466 	(obj:0)
STE(3,38)                            8332.57670941801 	(obj:0)
STE(3,39)                              9245.140043268 	(obj:0)
STE(4,40)                           -122.861343849919 	(obj:0)
STE(4,41)                            873.904659483372 	(obj:0)
STE(4,42)                            1899.37429275131 	(obj:0)
STE(4,43)                            873.904659483372 	(obj:0)
STE(4,44)                            1870.67066281666 	(obj:0)
STE(4,45)                             2896.1402960846 	(obj:0)
STE(4,46)                            1786.46799333342 	(obj:0)
STE(4,47)                            2783.23399666671 	(obj:0)
STE(4,48)                            3808.70362993465 	(obj:0)
STE(4,49)                            873.904659483372 	(obj:0)
STE(4,50)                            1870.67066281666 	(obj:0)
STE(4,51)                             2896.1402960846 	(obj:0)
STE(4,52)                            1870.67066281672 	(obj:0)
STE(4,53)                            2867.43666615001 	(obj:0)
STE(4,54)                            3892.90629941795 	(obj:0)
STE(4,55)                            2783.23399666671 	(obj:0)
STE(4,56)                                        3780 	(obj:0)
STE(4,57)                            4805.46963326794 	(obj:0)
STE(4,58)                            2091.35686281675 	(obj:0)
STE(4,59)                            3088.12286615004 	(obj:0)
STE(4,60)                            4113.59249941798 	(obj:0)
STE(4,61)                             3088.1228661501 	(obj:0)
STE(4,62)                            4084.88886948339 	(obj:0)
STE(4,63)                            5110.35850275133 	(obj:0)
STE(4,64)                            4000.68620000009 	(obj:0)
STE(4,65)                            4997.45220333338 	(obj:0)
STE(4,66)                            6022.92183660131 	(obj:0)
STE(4,67)                            873.904659483372 	(obj:0)
STE(4,68)                            1870.67066281666 	(obj:0)
STE(4,69)                             2896.1402960846 	(obj:0)
STE(4,70)                            1870.67066281666 	(obj:0)
STE(4,71)                            2867.43666614995 	(obj:0)
STE(4,72)                            3892.90629941789 	(obj:0)
STE(4,73)                            2783.23399666671 	(obj:0)
STE(4,74)                                        3780 	(obj:0)
STE(4,75)                            4805.46963326794 	(obj:0)
STE(4,76)                            1870.67066281666 	(obj:0)
STE(4,77)                            2867.43666614995 	(obj:0)
STE(4,78)                            3892.90629941789 	(obj:0)
STE(4,79)                            2867.43666615001 	(obj:0)
STE(4,80)                             3864.2026694833 	(obj:0)
STE(4,81)                            4889.67230275124 	(obj:0)
STE(4,82)                                        3780 	(obj:0)
STE(4,83)                            4776.76600333329 	(obj:0)
STE(4,84)                            5802.23563660122 	(obj:0)
STE(4,85)                            3088.12286615004 	(obj:0)
STE(4,86)                            4084.88886948333 	(obj:0)
STE(4,87)                            5110.35850275127 	(obj:0)
STE(4,88)                            4084.88886948339 	(obj:0)
STE(4,89)                            5081.65487281668 	(obj:0)
STE(4,90)                            6107.12450608462 	(obj:0)
STE(4,91)                            4997.45220333338 	(obj:0)
STE(4,92)                            5994.21820666667 	(obj:0)
STE(4,93)                             7019.6878399346 	(obj:0)
STE(4,94)                            2091.35686281676 	(obj:0)
STE(4,95)                            3088.12286615006 	(obj:0)
STE(4,96)                            4113.59249941799 	(obj:0)
STE(4,97)                            3088.12286615011 	(obj:0)
STE(4,98)                            4084.88886948341 	(obj:0)
STE(4,99)                            5110.35850275134 	(obj:0)
STE(4,100)                            4000.6862000001 	(obj:0)
STE(4,101)                           4997.45220333339 	(obj:0)
STE(4,102)                           6022.92183660133 	(obj:0)
STE(4,103)                           3088.12286615006 	(obj:0)
STE(4,104)                           4084.88886948335 	(obj:0)
STE(4,105)                           5110.35850275128 	(obj:0)
STE(4,106)                           4084.88886948341 	(obj:0)
STE(4,107)                            5081.6548728167 	(obj:0)
STE(4,108)                           6107.12450608463 	(obj:0)
STE(4,109)                           4997.45220333339 	(obj:0)
STE(4,110)                           5994.21820666668 	(obj:0)
STE(4,111)                           7019.68783993462 	(obj:0)
STE(4,112)                           4305.57506948343 	(obj:0)
STE(4,113)                           5302.34107281673 	(obj:0)
STE(4,114)                           6327.81070608466 	(obj:0)
STE(4,115)                           5302.34107281678 	(obj:0)
STE(4,116)                           6299.10707615008 	(obj:0)
STE(4,117)                           7324.57670941801 	(obj:0)
STE(4,118)                           6214.90440666677 	(obj:0)
STE(4,119)                           7211.67041000006 	(obj:0)
STE(4,120)                             8237.140043268 	(obj:0)
y1(4,100)                             1820.0120729411 	(obj:0)
y1(4,101)                            922.922669941142 	(obj:0)
y1(4,103)                             1820.0120729411 	(obj:0)
y1(4,104)                            922.922669941142 	(obj:0)
y1(4,106)                             1820.0120729411 	(obj:0)
y1(4,107)                            922.922669941142 	(obj:0)
y1(4,109)                             1820.0120729411 	(obj:0)
y1(4,110)                            922.922669941142 	(obj:0)
y1(4,112)                             1820.0120729411 	(obj:0)
y1(4,113)                            922.922669941142 	(obj:0)
y1(4,115)                             1820.0120729411 	(obj:0)
y1(4,116)                            922.922669941142 	(obj:0)
y1(4,118)                             1820.0120729411 	(obj:0)
y1(4,119)                            922.922669941142 	(obj:0)
WB(3)                                 3399.3204933139 	(obj:0)
AVE(3)                                3399.3204933139 	(obj:0)
AVE(4)                               3353.21046544222 	(obj:0)
WG(4)                                3353.21046544222 	(obj:10)
BG(1)                                      4495.91835 	(obj:10)
BG(2)                                5637.83769849365 	(obj:10)
BG(3)                                         3377.85 	(obj:10)
BG(4)                                966.397361028323 	(obj:10)
WB(1)                                3134.60043707458 	(obj:0)
AVE(1)                               3134.60043707458 	(obj:0)
WB(2)                                3326.45170866643 	(obj:0)
AVE(2)                               3326.45170866643 	(obj:0)
y1(1,1)                              1992.79638600001 	(obj:0)
y1(1,2)                              1095.70698300005 	(obj:0)
y1(2,4)                              3111.87734752379 	(obj:0)
y1(2,5)                              2214.78794452383 	(obj:0)
y1(2,6)                              1119.08096152379 	(obj:0)
y1(2,7)                              3111.87734752379 	(obj:0)
y1(2,8)                              2214.78794452383 	(obj:0)
y1(2,9)                              1119.08096152379 	(obj:0)
y1(2,10)                             3111.87734752379 	(obj:0)
y1(2,11)                             2214.78794452383 	(obj:0)
y1(2,12)                             1119.08096152379 	(obj:0)
y1(3,13)                             897.089403000015 	(obj:0)
y1(3,16)                             897.089403000015 	(obj:0)
y1(3,19)                             897.089403000015 	(obj:0)
y1(3,22)                             897.089403000015 	(obj:0)
y1(3,25)                             897.089403000015 	(obj:0)
y1(3,28)                             897.089403000015 	(obj:0)
y1(3,31)                             897.089403000015 	(obj:0)
y1(3,34)                             897.089403000015 	(obj:0)
y1(3,37)                             897.089403000015 	(obj:0)
y1(4,40)                              1820.0120729411 	(obj:0)
y1(4,41)                             922.922669941142 	(obj:0)
y1(4,43)                              1820.0120729411 	(obj:0)
y1(4,44)                             922.922669941142 	(obj:0)
y1(4,46)                              1820.0120729411 	(obj:0)
y1(4,47)                             922.922669941142 	(obj:0)
y1(4,49)                              1820.0120729411 	(obj:0)
y1(4,50)                             922.922669941142 	(obj:0)
y1(4,52)                              1820.0120729411 	(obj:0)
y1(4,53)                             922.922669941142 	(obj:0)
y1(4,55)                              1820.0120729411 	(obj:0)
y1(4,56)                             922.922669941142 	(obj:0)
y1(4,58)                              1820.0120729411 	(obj:0)
y1(4,59)                             922.922669941142 	(obj:0)
y1(4,61)                              1820.0120729411 	(obj:0)
y1(4,62)                             922.922669941142 	(obj:0)
y1(4,64)                              1820.0120729411 	(obj:0)
y1(4,65)                             922.922669941142 	(obj:0)
y1(4,67)                              1820.0120729411 	(obj:0)
y1(4,68)                             922.922669941142 	(obj:0)
y1(4,70)                              1820.0120729411 	(obj:0)
y1(4,71)                             922.922669941142 	(obj:0)
y1(4,73)                              1820.0120729411 	(obj:0)
y1(4,74)                             922.922669941142 	(obj:0)
y1(4,76)                              1820.0120729411 	(obj:0)
y1(4,77)                             922.922669941142 	(obj:0)
y1(4,79)                              1820.0120729411 	(obj:0)
y1(4,80)                             922.922669941142 	(obj:0)
y1(4,82)                              1820.0120729411 	(obj:0)
y1(4,83)                             922.922669941142 	(obj:0)
y1(4,85)                              1820.0120729411 	(obj:0)
y1(4,86)                             922.922669941142 	(obj:0)
y1(4,88)                              1820.0120729411 	(obj:0)
y1(4,89)                             922.922669941142 	(obj:0)
y1(4,91)                              1820.0120729411 	(obj:0)
y1(4,92)                             922.922669941142 	(obj:0)
y1(4,94)                              1820.0120729411 	(obj:0)
y1(4,95)                             922.922669941142 	(obj:0)
y1(4,97)                              1820.0120729411 	(obj:0)
y1(4,98)                             922.922669941142 	(obj:0)
y2(3,15)                             960.592982999986 	(obj:0)
y2(3,18)                             960.592982999986 	(obj:0)
y2(3,21)                             960.592982999986 	(obj:0)
y2(3,24)                             960.592982999986 	(obj:0)
y2(3,27)                             960.592982999986 	(obj:0)
y2(3,30)                             960.592982999986 	(obj:0)
y2(3,33)                             960.592982999986 	(obj:0)
y2(3,36)                             960.592982999986 	(obj:0)
y2(3,39)                             960.592982999986 	(obj:0)
